# Solution for model GasLib-40
# Objective value = 1.4585931304874675e+01
loadshed[innode_1] 0
loadshed[innode_2] 0
loadshed[innode_3] 0
loadshed[innode_4] 0
loadshed[innode_5] 0
loadshed[innode_6] 0
loadshed[innode_7] 0
loadshed[innode_8] 0
loadshed[source_1] -2.3403783317138238e-01
loadshed[source_2] 1.3587598422608682e-01
loadshed[source_3] 1.9042515260881665e-01
loadshed[sink_1] 0
loadshed[sink_2] 0
loadshed[sink_3] 0
loadshed[sink_4] 0
loadshed[sink_5] 0
loadshed[sink_6] 0
loadshed[sink_7] 0
loadshed[sink_8] 0
loadshed[sink_9] 0
loadshed[sink_10] 0
loadshed[sink_11] 0
loadshed[sink_12] 8.9187860208150871e-01
loadshed[sink_13] 0
loadshed[sink_14] 0
loadshed[sink_15] 0
loadshed[sink_16] 0
loadshed[sink_17] 0
loadshed[sink_18] 0
loadshed[sink_19] 0
loadshed[sink_20] 0
loadshed[sink_21] 0
loadshed[sink_22] 0
loadshed[sink_23] 0
loadshed[sink_24] 0
loadshed[sink_25] 0
loadshed[sink_26] 0
loadshed[sink_27] 0
loadshed[sink_28] 0
loadshed[sink_29] 0
flow[source_1,sink_3] 1.9508938383435083e+02
flow[innode_1,sink_16] 1.6354166666666970e+01
flow[innode_6,sink_13] -1.3506745839306397e+01
flow[sink_13,sink_14] -2.9860912505973065e+01
flow[sink_14,sink_10] -4.6215079172639733e+01
flow[sink_25,sink_26] 1.8186369036251926e+02
flow[sink_26,sink_9] 1.6530990202846425e+02
flow[sink_9,sink_18] 1.4895573536179759e+02
flow[sink_26,sink_4] 1.9962166738838505e-01
flow[sink_4,sink_20] -16.1545449992783
flow[sink_18,sink_6] 1.3260156869513094e+02
flow[sink_25,innode_8] -1.6238105050101447e+02
flow[sink_6,sink_7] 8.3539068695130482e+01
flow[sink_6,sink_22] 3.2708333333333641e+01
flow[sink_7,sink_24] 3.4476568695125330e+01
flow[sink_22,sink_1] 1.6354166666666970e+01
flow[sink_24,sink_21] 1.8122402028458662e+01
flow[sink_21,sink_12] 1.7682353617919933e+00
flow[sink_7,sink_5] 3.2708333333338757e+01
flow[sink_5,sink_17] 1.6354166666672086e+01
flow[sink_17,sink_4] 0
flow[sink_17,sink_8] 0
flow[sink_3,sink_23] 16.3541666666697
flow[sink_8,sink_20] -1.6354166666668334e+01
flow[sink_25,sink_20] 4.8862878332613263e+01
flow[sink_25,sink_15] -7.1192939021478864e+01
flow[sink_15,sink_29] 0
flow[sink_29,sink_28] 1.6354166666667879e+01
flow[sink_29,sink_2] 1.0390127235481221e+02
flow[sink_2,sink_15] 8.7547105688145535e+01
flow[sink_29,innode_7] -1.3660960568814676e+02
flow[innode_4,sink_19] 4.9977606173265045e+01
flow[sink_19,innode_3] 4.6495056469805291e+01
flow[innode_4,innode_5] 7.8008306332709182e+01
flow[sink_27,innode_5] -7.8008306332709182e+01
flow[sink_27,sink_19] 6.1654139666042518e+01
flow[sink_10,sink_11] 3.2708333333333641e+01
flow[sink_10,innode_2] -4.8782522702834747e+01
flow[sink_10,innode_3] -4.6495056469805291e+01
flow[innode_6,sink_25] 1.3506745839306397e+01
flow[sink_11,innode_1] 1.6354166666666970e+01
flow[sink_19,innode_2] 4.8782522702834747e+01
flow[source_3,innode_4] 1.2798591250597423e+02
flow[source_2,innode_7] 1.3660960568814676e+02
flow[sink_3,innode_8] 1.6238105050101447e+02
pressure[innode_1] 7.6258470719388924e+01
pressure[innode_2] 78.9885298302547
pressure[innode_3] 7.8885571792696311e+01
pressure[innode_4] 81.01325
pressure[innode_5] 8.0959591773513637e+01
pressure[innode_6] 74.0963645957032
pressure[innode_7] 81.01325
pressure[innode_8] 8.0361140716687686e+01
pressure[source_1] 81.01325
pressure[source_2] 81.01325
pressure[source_3] 81.01325
pressure[sink_1] 4.0361990625441308e+01
pressure[sink_2] 7.4727541726912108e+01
pressure[sink_3] 8.0361140716687686e+01
pressure[sink_4] 6.1262431270657807e+01
pressure[sink_5] 2.7713135895855068e+01
pressure[sink_6] 4.2463068235828679e+01
pressure[sink_7] 4.1316275949646176e+01
pressure[sink_8] 6.1307948382751270e+01
pressure[sink_9] 5.1393587396577423e+01
pressure[sink_10] 7.6410172026992470e+01
pressure[sink_11] 7.6258470719388924e+01
pressure[sink_12] 1.01325
pressure[sink_13] 74.1708250283284
pressure[sink_14] 7.4224263674845162e+01
pressure[sink_15] 7.4441719721911625e+01
pressure[sink_16] 7.5236820884571245e+01
pressure[sink_17] 2.6494868690499956e+01
pressure[sink_18] 4.6003924926742876e+01
pressure[sink_19] 78.9885298302547
pressure[sink_20] 6.2447603806339558e+01
pressure[sink_21] 1.6424849176239051e+00
pressure[sink_22] 4.1425759767796315e+01
pressure[sink_23] 80.1964227050279
pressure[sink_24] 1.8431736823694946e+00
pressure[sink_25] 74.0963645957032
pressure[sink_26] 61.2878116860935
pressure[sink_27] 8.0312266974803322e+01
pressure[sink_28] 7.7064195941740323e+01
pressure[sink_29] 77.3594782153575
interdiction[source_1,sink_3] 0
interdiction[innode_1,sink_16] 0
interdiction[innode_6,sink_13] 0
interdiction[sink_13,sink_14] 0
interdiction[sink_14,sink_10] 0
interdiction[sink_25,sink_26] 0
interdiction[sink_26,sink_9] 0
interdiction[sink_9,sink_18] 0
interdiction[sink_26,sink_4] 0
interdiction[sink_4,sink_20] 0
interdiction[sink_18,sink_6] 0
interdiction[sink_25,innode_8] 0
interdiction[sink_6,sink_7] 0
interdiction[sink_6,sink_22] 0
interdiction[sink_7,sink_24] 0
interdiction[sink_22,sink_1] 0
interdiction[sink_24,sink_21] 0
interdiction[sink_21,sink_12] 0
interdiction[sink_7,sink_5] 0
interdiction[sink_5,sink_17] 0
interdiction[sink_17,sink_4] 1
interdiction[sink_17,sink_8] 1
interdiction[sink_3,sink_23] 0
interdiction[sink_8,sink_20] 0
interdiction[sink_25,sink_20] 0
interdiction[sink_25,sink_15] 0
interdiction[sink_15,sink_29] 1
interdiction[sink_29,sink_28] 0
interdiction[sink_29,sink_2] 0
interdiction[sink_2,sink_15] 0
interdiction[sink_29,innode_7] 0
interdiction[innode_4,sink_19] 0
interdiction[sink_19,innode_3] 0
interdiction[innode_4,innode_5] 0
interdiction[sink_27,innode_5] 0
interdiction[sink_27,sink_19] 0
interdiction[sink_10,sink_11] 0
interdiction[sink_10,innode_2] 0
interdiction[sink_10,innode_3] 0
interdiction[innode_6,sink_25] 0
interdiction[sink_11,innode_1] 0
interdiction[sink_19,innode_2] 0
interdiction[source_3,innode_4] 0
interdiction[source_2,innode_7] 0
interdiction[sink_3,innode_8] 0
WCcheckFlow[source_1,sink_3] 39
WCcheckFlow[innode_1,sink_16] 1
WCcheckFlow[innode_6,sink_13] 13
WCcheckFlow[sink_13,sink_14] 12
WCcheckFlow[sink_14,sink_10] 11
WCcheckFlow[sink_25,sink_26] 15
WCcheckFlow[sink_26,sink_9] 11
WCcheckFlow[sink_9,sink_18] 10
WCcheckFlow[sink_26,sink_4] 3
WCcheckFlow[sink_4,sink_20] 2
WCcheckFlow[sink_18,sink_6] 9
WCcheckFlow[sink_25,innode_8] -36
WCcheckFlow[sink_6,sink_7] 6
WCcheckFlow[sink_6,sink_22] 2
WCcheckFlow[sink_7,sink_24] 3
WCcheckFlow[sink_22,sink_1] 1
WCcheckFlow[sink_24,sink_21] 2
WCcheckFlow[sink_21,sink_12] 1
WCcheckFlow[sink_7,sink_5] 2
WCcheckFlow[sink_5,sink_17] 1
WCcheckFlow[sink_17,sink_4] 0
WCcheckFlow[sink_17,sink_8] 0
WCcheckFlow[sink_3,sink_23] 1
WCcheckFlow[sink_8,sink_20] -1
WCcheckFlow[sink_25,sink_20] 0
WCcheckFlow[sink_25,sink_15] 6
WCcheckFlow[sink_15,sink_29] 0
WCcheckFlow[sink_29,sink_28] 1
WCcheckFlow[sink_29,sink_2] -4
WCcheckFlow[sink_2,sink_15] -5
WCcheckFlow[sink_29,innode_7] 2
WCcheckFlow[innode_4,sink_19] -4
WCcheckFlow[sink_19,innode_3] -5
WCcheckFlow[innode_4,innode_5] 2
WCcheckFlow[sink_27,innode_5] -1
WCcheckFlow[sink_27,sink_19] 0
WCcheckFlow[sink_10,sink_11] 3
WCcheckFlow[sink_10,innode_2] 1
WCcheckFlow[sink_10,innode_3] 6
WCcheckFlow[innode_6,sink_25] -14
WCcheckFlow[sink_11,innode_1] 2
WCcheckFlow[sink_19,innode_2] 0
WCcheckFlow[source_3,innode_4] -1
WCcheckFlow[source_2,innode_7] -1
WCcheckFlow[sink_3,innode_8] 37
